\ENCODING=ISO-8859-1
\Problem name: 

Minimize
 obj: 63.4601993378527 Y_0_0 + 32.4368016302471 Y_0_1 + 40.4551702505378 Y_0_2
      + 19.3784416298112 Y_0_3 + 44.4645026959709 Y_0_4
      + 63.2449658075645 Y_0_5 + 77.5808352623249 Y_0_6
      + 68.9134507915545 Y_0_7 + 62.8060259847731 Y_1_0
      + 31.0668006077227 Y_1_1 + 30.8386251314808 Y_1_2
      + 13.4433626745692 Y_1_3 + 37.5538546623379 Y_1_4
      + 59.4569230619951 Y_1_5 + 72.0665386986221 Y_1_6
      + 68.7012641805083 Y_1_7 + 63.7337971566107 Y_2_0 + 32.835135145146 Y_2_1
      + 21.5736135128077 Y_2_2 + 13.6353951171207 Y_2_3
      + 32.3031267836412 Y_2_4 + 57.1867615799321 Y_2_5
      + 67.5898365140796 Y_2_6 + 69.9332803463415 Y_2_7
      + 66.1770118696817 Y_3_0 + 37.2980709956963 Y_3_1 + 13.409727812301 Y_3_2
      + 19.776855159504 Y_3_3 + 29.608985122763 Y_3_4 + 56.6173621780457 Y_3_5
      + 64.3675850098479 Y_3_6 + 72.5359476397738 Y_3_7
      + 69.9771169740509 Y_4_0 + 43.6365225470591 Y_4_1
      + 9.70673992646347 Y_4_2 + 28.2192133129186 Y_4_3
      + 30.1644161223121 Y_4_4 + 57.7990112372175 Y_4_5
      + 62.5938175860843 Y_4_6 + 76.3692588676884 Y_4_7
      + 74.9279447202444 Y_5_0 + 51.158050197403 Y_5_1 + 14.4437114343925 Y_5_2
      + 37.4369336351149 Y_5_3 + 33.8096435946906 Y_5_4
      + 60.6294128290882 Y_5_5 + 62.3921950246984 Y_5_6
      + 81.2592376287152 Y_5_7 + 53.5835506475635 Y_6_0
      + 23.0422676835419 Y_6_1 + 39.2813034406956 Y_6_2 + 14.964090349901 Y_6_3
      + 38.5835716335334 Y_6_4 + 54.4805075233335 Y_6_5
      + 69.8082086863716 Y_6_6 + 58.9649361909262 Y_6_7
      + 52.8071671271997 Y_7_0 + 21.0700284764876 Y_7_1
      + 29.2817485816677 Y_7_2 + 5.39666563722453 Y_7_3
      + 30.3626744540069 Y_7_4 + 50.03324594707 Y_7_5 + 63.623784860695 Y_7_6
      + 58.7168093479201 Y_7_7 + 53.9072991347183 Y_8_0
      + 23.5997055066372 Y_8_1 + 19.2826554187954 Y_8_2
      + 5.85866879077491 Y_8_3 + 23.5603904891239 Y_8_4
      + 47.3130605647109 Y_8_5 + 58.5045810172161 Y_8_6
      + 60.1536673861204 Y_8_7 + 56.7749671950588 Y_9_0 + 29.494848702782 Y_9_1
      + 9.28551560227002 Y_9_2 + 15.4765629259212 Y_9_3
      + 19.7051262365913 Y_9_4 + 46.6232313337461 Y_9_5
      + 54.7502146114515 Y_9_6 + 63.1606182680315 Y_9_7
      + 61.1620544128465 Y_10_0 + 37.1879832741707 Y_10_1
      + 0.787908624143687 Y_10_2 + 25.3914158722983 Y_10_3
      + 20.5302703343137 Y_10_4 + 48.0512819808171 Y_10_5
      + 52.6534519286248 Y_10_6 + 67.5282437206833 Y_10_7
      + 66.7697304173081 Y_11_0 + 45.7815039071457 Y_11_1
      + 10.7247750559161 Y_11_2 + 35.3542642406825 Y_11_3
      + 25.5869497986767 Y_11_4 + 51.4210628050413 Y_11_5
      + 52.4136051040186 Y_11_6 + 73.0127639526131 Y_11_7
      + 43.762962651082 Y_12_0 + 14.4826137143818 Y_12_1
      + 40.6130619382484 Y_12_2 + 16.5022422718854 Y_12_3
      + 34.6452305519822 Y_12_4 + 46.2204035032149 Y_12_5
      + 62.6704555592187 Y_12_6 + 49.037370443367 Y_12_7
      + 42.8088413765194 Y_13_0 + 11.079083897146 Y_13_1
      + 31.0454634367084 Y_13_2 + 8.80477143371706 Y_13_3
      + 25.1692669738314 Y_13_4 + 40.8842964963322 Y_13_5
      + 55.6990664194652 Y_13_6 + 48.7387289534719 Y_13_7
      + 44.1587692310372 Y_14_0 + 15.3540255307851 Y_14_1
      + 21.8682601045442 Y_14_2 + 9.09527349781193 Y_14_3
      + 16.3307072718851 Y_14_4 + 37.5063421303651 Y_14_5
      + 49.7713371329323 Y_14_6 + 50.4605162478546 Y_14_7
      + 47.6171912233387 Y_15_0 + 23.4253303071696 Y_15_1
      + 13.8787895725816 Y_15_2 + 16.9683234292608 Y_15_3
      + 9.99459854121215 Y_15_4 + 36.632304049841 Y_15_5
      + 45.2988520825859 Y_15_6 + 54.0098481760503 Y_15_7
      + 52.7711748969075 Y_16_0 + 32.5844456758129 Y_16_1
      + 10.3450857898811 Y_16_2 + 26.327248242078 Y_16_3
      + 11.5365506109929 Y_16_4 + 38.433393032622 Y_16_5
      + 42.7409171637671 Y_16_6 + 59.0581383045554 Y_16_7
      + 59.1793621121418 Y_17_0 + 42.1277355194888 Y_17_1
      + 14.8802150522094 Y_17_2 + 36.0322633205298 Y_17_3
      + 19.1387564904306 Y_17_4 + 42.5714188159145 Y_17_5
      + 42.4450939450015 Y_17_6 + 65.2584377686135 Y_17_7
      + 34.0469807765681 Y_18_0 + 9.40989372947432 Y_18_1
      + 44.2246628025585 Y_18_2 + 22.8193777303414 Y_18_3
      + 33.3450446093569 Y_18_4 + 38.7882159940361 Y_18_5
      + 56.4090950113543 Y_18_6 + 39.1466946241953 Y_18_7
      + 32.8115360810798 Y_19_0 + 1.24342269562687 Y_19_1
      + 35.6401571264774 Y_19_2 + 18.0533653372439 Y_19_3
      + 23.3472054002187 Y_19_4 + 32.2447778717733 Y_19_5
      + 48.5467403643128 Y_19_6 + 38.7719447539068 Y_19_7
      + 34.5542602293842 Y_20_0 + 10.7026211742731 Y_20_1
      + 28.0110835206352 Y_20_2 + 18.1968129077594 Y_20_3
      + 13.3526027425368 Y_20_4 + 27.8374873147704 Y_20_5
      + 41.6123299035274 Y_20_6 + 40.9153235353211 Y_20_7
      + 38.876688387773 Y_21_0 + 20.6771879132536 Y_21_1
      + 22.3387734667774 Y_21_2 + 23.1586700827142 Y_21_3
      + 3.38998525070538 Y_21_4 + 26.6481838030287 Y_21_5
      + 36.1439621513746 Y_21_6 + 45.2201691726159 Y_21_7
      + 45.0421680206448 Y_22_0 + 30.6683240494162 Y_22_1
      + 20.3327519042554 Y_22_2 + 30.6842630675726 Y_22_3
      + 6.68520755100393 Y_22_4 + 29.0744853780768 Y_22_5
      + 32.8813929145345 Y_22_6 + 51.1435597118542 Y_22_7
      + 52.4041687273064 Y_23_0 + 40.6638180696304 Y_23_1
      + 22.9743509157495 Y_23_2 + 39.3284121215185 Y_23_3
      + 16.6700929811444 Y_23_4 + 34.3587790819173 Y_23_5
      + 32.4959382077207 Y_23_6 + 58.1933303738495 Y_23_7
      + 24.5600671823185 Y_24_0 + 12.936232063472 Y_24_1
      + 49.6207698448946 Y_24_2 + 31.1307564957873 Y_24_3
      + 34.978450508849 Y_24_4 + 32.7524915082807 Y_24_5
      + 51.3457495806615 Y_24_6 + 29.3302523003127 Y_24_7
      + 22.8165926465807 Y_25_0 + 8.96359860770215 Y_25_1
      + 42.1499798339216 Y_25_2 + 27.8266778469871 Y_25_3
      + 25.6260024194177 Y_25_4 + 24.6561493343953 Y_25_5
      + 42.5580309694892 Y_25_6 + 28.8281754538854 Y_25_7
      + 25.258600515468 Y_26_0 + 13.9048948216087 Y_26_1
      + 35.9307778930543 Y_26_2 + 27.9199570200242 Y_26_3
      + 17.026215081456 Y_26_4 + 18.5236524476141 Y_26_5
      + 34.4381474530788 Y_26_6 + 31.6522305691084 Y_26_7
      + 30.9094953048412 Y_27_0 + 22.5021354542186 Y_27_1
      + 31.7083711344497 Y_27_2 + 31.3803122992745 Y_27_3
      + 11.0946834114363 Y_27_4 + 16.6830962354115 Y_27_5
      + 27.5823494285748 Y_27_6 + 37.0494763795657 Y_27_7
      + 38.377036102336 Y_28_0 + 31.9272000025057 Y_28_1
      + 30.3285476078232 Y_28_2 + 37.2816845112986 Y_28_3
      + 12.5016798871192 Y_28_4 + 20.335331322602 Y_28_5
      + 23.1427310402208 Y_28_6 + 44.0847331850835 Y_28_7
      + 46.7995395276492 Y_29_0 + 41.6214620118035 Y_29_1
      + 32.1593034750444 Y_29_2 + 44.6668109450406 Y_29_3
      + 19.7355516771131 Y_29_4 + 27.3628525559745 Y_29_5
      + 22.5917241484576 Y_29_6 + 52.0985959503709 Y_29_7
      + 15.7224966210841 Y_30_0 + 21.1221708164668 Y_30_1
      + 56.2905036396016 Y_30_2 + 40.2184534759854 Y_30_3
      + 39.1802501268177 Y_30_4 + 28.998718937222 Y_30_5
      + 47.8621562406041 Y_30_6 + 19.6993324760003 Y_30_7
      + 12.8295323375406 Y_31_0 + 18.951150360862 Y_31_1
      + 49.8299187235942 Y_31_2 + 37.7190137728971 Y_31_3
      + 31.1173906361057 Y_31_4 + 19.3939604000833 Y_31_5
      + 38.2829727163396 Y_31_6 + 18.9436981606021 Y_31_7
      + 16.7927633223362 Y_32_0 + 21.7289231210385 Y_32_1
      + 44.6925139145249 Y_32_2 + 37.7878816553667 Y_32_3
      + 24.5253338407452 Y_32_4 + 10.5510994687758 Y_32_5
      + 28.9894118601948 Y_32_6 + 23.0144237381691 Y_32_7
      + 24.4825836054939 Y_33_0 + 28.0204585972464 Y_33_1
      + 41.374156184749 Y_33_2 + 40.4119289319379 Y_33_3
      + 20.8492685723025 Y_33_4 + 6.82097500361935 Y_33_5
      + 20.3761134665078 Y_33_6 + 30.0077273381374 Y_33_7
      + 33.4185113372813 Y_34_0 + 36.0297946150127 Y_34_1
      + 40.3264280590285 Y_34_2 + 45.1478017183561 Y_34_3
      + 21.6308113578756 Y_34_4 + 13.4805674954729 Y_34_5
      + 13.78354090936 Y_34_6 + 38.3570554135742 Y_34_7
      + 42.8275250277202 Y_35_0 + 44.8458035940934 Y_35_1
      + 41.7207478360587 Y_35_2 + 51.4152117568332 Y_35_3
      + 26.4781419287683 Y_35_4 + 22.7360000879662 Y_35_5
      + 12.8368999372902 Y_35_6 + 47.3504350560795 Y_35_7
      + 9.54970680178192 Y_36_0 + 30.4129265280407 Y_36_1
      + 63.8358895919842 Y_36_2 + 49.6580708445264 Y_36_3
      + 45.2403801929206 Y_36_4 + 28.4451349091545 Y_36_5
      + 46.3161526899634 Y_36_6 + 10.7640001858045 Y_36_7
      + 2.93204706647079 Y_37_0 + 28.9472986649877 Y_37_1
      + 58.2187323805663 Y_37_2 + 47.6563112294689 Y_37_3
      + 38.4693644345731 Y_37_4 + 18.5560151972346 Y_37_5
      + 36.3316115800001 Y_37_6 + 9.30933402558959 Y_37_7
      + 11.2248340744975 Y_38_0 + 30.8374139642091 Y_38_1
      + 53.8871116316323 Y_38_2 + 47.7108373433123 Y_38_3
      + 33.3630334352259 Y_38_4 + 8.91771831804526 Y_38_5
      + 26.3587935991009 Y_38_6 + 16.0456754298471 Y_38_7
      + 21.0569917129679 Y_39_0 + 35.5520196332079 Y_39_1
      + 51.1685528425419 Y_39_2 + 49.8148973701643 Y_39_3
      + 30.7618595016621 Y_39_4 + 3.83740797935273 Y_39_5
      + 16.4190742735393 Y_39_6 + 25.0651890078651 Y_39_7
      + 30.9967240204509 Y_40_0 + 42.1538384966304 Y_40_1
      + 50.3251507697692 Y_40_2 + 53.7282421078524 Y_40_3
      + 31.2968369008755 Y_40_4 + 12.2444150534029 Y_40_5
      + 6.66228189136425 Y_40_6 + 34.6274991877843 Y_40_7
      + 40.9658015910833 Y_41_0 + 49.899359715331 Y_41_1
      + 51.4492060191409 Y_41_2 + 59.0925037547065 Y_41_3
      + 34.8237275431565 Y_41_4 + 22.0255692321447 Y_41_5
      + 4.38018264459371 Y_41_6 + 44.3831465761498 Y_41_7
      + 11.6274201781823 Y_42_0 + 40.0467988733182 Y_42_1
      + 71.9820866605019 Y_42_2 + 59.2817341176859 Y_42_3
      + 52.5194440183824 Y_42_4 + 31.2622088151173 Y_42_5
      + 46.8997441357626 Y_42_6 + 6.60785139058075 Y_42_7
      + 7.2523720257582 Y_43_0 + 38.945424634994 Y_43_1
      + 67.0508821716762 Y_43_2 + 57.615310465188 Y_43_3
      + 46.8133741573922 Y_43_4 + 22.6390304562718 Y_43_5
      + 37.0727123367039 Y_43_6 + 3.80311714255556 Y_43_7
      + 13.0382859302901 Y_44_0 + 40.3701139458387 Y_44_1
      + 63.3263041713315 Y_44_2 + 57.6604197001721 Y_44_3
      + 42.7164137071454 Y_44_4 + 15.7393043048287 Y_44_5
      + 27.3712623019107 Y_44_6 + 13.6111608615871 Y_44_7
      + 22.0770672871195 Y_45_0 + 44.0765935616626 Y_45_1
      + 61.0296714721618 Y_45_2 + 59.4131635245928 Y_45_3
      + 40.7172199443921 Y_45_4 + 13.525002772643 Y_45_5
      + 17.9996111069101 Y_45_6 + 23.5810029472879 Y_45_7
      + 31.6985315117278 Y_46_0 + 49.5554850647232 Y_46_1
      + 60.324296929181 Y_46_2 + 62.7305667119308 Y_46_3
      + 41.1228890035707 Y_46_4 + 17.8360786048952 Y_46_5
      + 9.93911464869986 Y_46_6 + 33.5687905650472 Y_46_7
      + 41.4993602360326 Y_47_0 + 56.2916166049617 Y_47_1
      + 61.2651679178308 Y_47_2 + 67.3819263601153 Y_47_3
      + 43.8667527861363 Y_47_4 + 25.5602366968696 Y_47_5
      + 8.57822825529841 Y_47_6 + 43.5621819931004 Y_47_7
      + 19.4729787141054 Y_48_0 + 49.8251552932853 Y_48_1
      + 80.5470098762207 Y_48_2 + 69.0124916228939 Y_48_3
      + 60.5796335413149 Y_48_4 + 36.6814080972909 Y_48_5
      + 49.5377229997504 Y_48_6 + 13.0944148399232 Y_48_7
      + 17.2219888514654 Y_49_0 + 48.9443163196709 Y_49_1
      + 76.1723099295275 Y_49_2 + 67.5864187540663 Y_49_3
      + 55.7054036876136 Y_49_4 + 29.677023098687 Y_49_5
      + 40.358220971693 Y_49_6 + 11.927434761926 Y_49_7 + 100 N_icp_0
      + 100 N_icp_1 + 100 N_icp_2 + 100 N_icp_3 + 100 N_icp_4 + 100 N_icp_5
      + 100 N_icp_6 + 100 N_icp_7
Subject To
 c1:   Y_0_0 + Y_0_1 + Y_0_2 + Y_0_3 + Y_0_4 + Y_0_5 + Y_0_6 + Y_0_7  = 1
 c2:   Y_1_0 + Y_1_1 + Y_1_2 + Y_1_3 + Y_1_4 + Y_1_5 + Y_1_6 + Y_1_7  = 1
 c3:   Y_2_0 + Y_2_1 + Y_2_2 + Y_2_3 + Y_2_4 + Y_2_5 + Y_2_6 + Y_2_7  = 1
 c4:   Y_3_0 + Y_3_1 + Y_3_2 + Y_3_3 + Y_3_4 + Y_3_5 + Y_3_6 + Y_3_7  = 1
 c5:   Y_4_0 + Y_4_1 + Y_4_2 + Y_4_3 + Y_4_4 + Y_4_5 + Y_4_6 + Y_4_7  = 1
 c6:   Y_5_0 + Y_5_1 + Y_5_2 + Y_5_3 + Y_5_4 + Y_5_5 + Y_5_6 + Y_5_7  = 1
 c7:   Y_6_0 + Y_6_1 + Y_6_2 + Y_6_3 + Y_6_4 + Y_6_5 + Y_6_6 + Y_6_7  = 1
 c8:   Y_7_0 + Y_7_1 + Y_7_2 + Y_7_3 + Y_7_4 + Y_7_5 + Y_7_6 + Y_7_7  = 1
 c9:   Y_8_0 + Y_8_1 + Y_8_2 + Y_8_3 + Y_8_4 + Y_8_5 + Y_8_6 + Y_8_7  = 1
 c10:  Y_9_0 + Y_9_1 + Y_9_2 + Y_9_3 + Y_9_4 + Y_9_5 + Y_9_6 + Y_9_7  = 1
 c11:  Y_10_0 + Y_10_1 + Y_10_2 + Y_10_3 + Y_10_4 + Y_10_5 + Y_10_6 + Y_10_7
        = 1
 c12:  Y_11_0 + Y_11_1 + Y_11_2 + Y_11_3 + Y_11_4 + Y_11_5 + Y_11_6 + Y_11_7
        = 1
 c13:  Y_12_0 + Y_12_1 + Y_12_2 + Y_12_3 + Y_12_4 + Y_12_5 + Y_12_6 + Y_12_7
        = 1
 c14:  Y_13_0 + Y_13_1 + Y_13_2 + Y_13_3 + Y_13_4 + Y_13_5 + Y_13_6 + Y_13_7
        = 1
 c15:  Y_14_0 + Y_14_1 + Y_14_2 + Y_14_3 + Y_14_4 + Y_14_5 + Y_14_6 + Y_14_7
        = 1
 c16:  Y_15_0 + Y_15_1 + Y_15_2 + Y_15_3 + Y_15_4 + Y_15_5 + Y_15_6 + Y_15_7
        = 1
 c17:  Y_16_0 + Y_16_1 + Y_16_2 + Y_16_3 + Y_16_4 + Y_16_5 + Y_16_6 + Y_16_7
        = 1
 c18:  Y_17_0 + Y_17_1 + Y_17_2 + Y_17_3 + Y_17_4 + Y_17_5 + Y_17_6 + Y_17_7
        = 1
 c19:  Y_18_0 + Y_18_1 + Y_18_2 + Y_18_3 + Y_18_4 + Y_18_5 + Y_18_6 + Y_18_7
        = 1
 c20:  Y_19_0 + Y_19_1 + Y_19_2 + Y_19_3 + Y_19_4 + Y_19_5 + Y_19_6 + Y_19_7
        = 1
 c21:  Y_20_0 + Y_20_1 + Y_20_2 + Y_20_3 + Y_20_4 + Y_20_5 + Y_20_6 + Y_20_7
        = 1
 c22:  Y_21_0 + Y_21_1 + Y_21_2 + Y_21_3 + Y_21_4 + Y_21_5 + Y_21_6 + Y_21_7
        = 1
 c23:  Y_22_0 + Y_22_1 + Y_22_2 + Y_22_3 + Y_22_4 + Y_22_5 + Y_22_6 + Y_22_7
        = 1
 c24:  Y_23_0 + Y_23_1 + Y_23_2 + Y_23_3 + Y_23_4 + Y_23_5 + Y_23_6 + Y_23_7
        = 1
 c25:  Y_24_0 + Y_24_1 + Y_24_2 + Y_24_3 + Y_24_4 + Y_24_5 + Y_24_6 + Y_24_7
        = 1
 c26:  Y_25_0 + Y_25_1 + Y_25_2 + Y_25_3 + Y_25_4 + Y_25_5 + Y_25_6 + Y_25_7
        = 1
 c27:  Y_26_0 + Y_26_1 + Y_26_2 + Y_26_3 + Y_26_4 + Y_26_5 + Y_26_6 + Y_26_7
        = 1
 c28:  Y_27_0 + Y_27_1 + Y_27_2 + Y_27_3 + Y_27_4 + Y_27_5 + Y_27_6 + Y_27_7
        = 1
 c29:  Y_28_0 + Y_28_1 + Y_28_2 + Y_28_3 + Y_28_4 + Y_28_5 + Y_28_6 + Y_28_7
        = 1
 c30:  Y_29_0 + Y_29_1 + Y_29_2 + Y_29_3 + Y_29_4 + Y_29_5 + Y_29_6 + Y_29_7
        = 1
 c31:  Y_30_0 + Y_30_1 + Y_30_2 + Y_30_3 + Y_30_4 + Y_30_5 + Y_30_6 + Y_30_7
        = 1
 c32:  Y_31_0 + Y_31_1 + Y_31_2 + Y_31_3 + Y_31_4 + Y_31_5 + Y_31_6 + Y_31_7
        = 1
 c33:  Y_32_0 + Y_32_1 + Y_32_2 + Y_32_3 + Y_32_4 + Y_32_5 + Y_32_6 + Y_32_7
        = 1
 c34:  Y_33_0 + Y_33_1 + Y_33_2 + Y_33_3 + Y_33_4 + Y_33_5 + Y_33_6 + Y_33_7
        = 1
 c35:  Y_34_0 + Y_34_1 + Y_34_2 + Y_34_3 + Y_34_4 + Y_34_5 + Y_34_6 + Y_34_7
        = 1
 c36:  Y_35_0 + Y_35_1 + Y_35_2 + Y_35_3 + Y_35_4 + Y_35_5 + Y_35_6 + Y_35_7
        = 1
 c37:  Y_36_0 + Y_36_1 + Y_36_2 + Y_36_3 + Y_36_4 + Y_36_5 + Y_36_6 + Y_36_7
        = 1
 c38:  Y_37_0 + Y_37_1 + Y_37_2 + Y_37_3 + Y_37_4 + Y_37_5 + Y_37_6 + Y_37_7
        = 1
 c39:  Y_38_0 + Y_38_1 + Y_38_2 + Y_38_3 + Y_38_4 + Y_38_5 + Y_38_6 + Y_38_7
        = 1
 c40:  Y_39_0 + Y_39_1 + Y_39_2 + Y_39_3 + Y_39_4 + Y_39_5 + Y_39_6 + Y_39_7
        = 1
 c41:  Y_40_0 + Y_40_1 + Y_40_2 + Y_40_3 + Y_40_4 + Y_40_5 + Y_40_6 + Y_40_7
        = 1
 c42:  Y_41_0 + Y_41_1 + Y_41_2 + Y_41_3 + Y_41_4 + Y_41_5 + Y_41_6 + Y_41_7
        = 1
 c43:  Y_42_0 + Y_42_1 + Y_42_2 + Y_42_3 + Y_42_4 + Y_42_5 + Y_42_6 + Y_42_7
        = 1
 c44:  Y_43_0 + Y_43_1 + Y_43_2 + Y_43_3 + Y_43_4 + Y_43_5 + Y_43_6 + Y_43_7
        = 1
 c45:  Y_44_0 + Y_44_1 + Y_44_2 + Y_44_3 + Y_44_4 + Y_44_5 + Y_44_6 + Y_44_7
        = 1
 c46:  Y_45_0 + Y_45_1 + Y_45_2 + Y_45_3 + Y_45_4 + Y_45_5 + Y_45_6 + Y_45_7
        = 1
 c47:  Y_46_0 + Y_46_1 + Y_46_2 + Y_46_3 + Y_46_4 + Y_46_5 + Y_46_6 + Y_46_7
        = 1
 c48:  Y_47_0 + Y_47_1 + Y_47_2 + Y_47_3 + Y_47_4 + Y_47_5 + Y_47_6 + Y_47_7
        = 1
 c49:  Y_48_0 + Y_48_1 + Y_48_2 + Y_48_3 + Y_48_4 + Y_48_5 + Y_48_6 + Y_48_7
        = 1
 c50:  Y_49_0 + Y_49_1 + Y_49_2 + Y_49_3 + Y_49_4 + Y_49_5 + Y_49_6 + Y_49_7
        = 1
 c51:  Y_0_0 - N_icp_0 <= 0
 c52:  Y_0_1 - N_icp_1 <= 0
 c53:  Y_0_2 - N_icp_2 <= 0
 c54:  Y_0_3 - N_icp_3 <= 0
 c55:  Y_0_4 - N_icp_4 <= 0
 c56:  Y_0_5 - N_icp_5 <= 0
 c57:  Y_0_6 - N_icp_6 <= 0
 c58:  Y_0_7 - N_icp_7 <= 0
 c59:  Y_1_0 - N_icp_0 <= 0
 c60:  Y_1_1 - N_icp_1 <= 0
 c61:  Y_1_2 - N_icp_2 <= 0
 c62:  Y_1_3 - N_icp_3 <= 0
 c63:  Y_1_4 - N_icp_4 <= 0
 c64:  Y_1_5 - N_icp_5 <= 0
 c65:  Y_1_6 - N_icp_6 <= 0
 c66:  Y_1_7 - N_icp_7 <= 0
 c67:  Y_2_0 - N_icp_0 <= 0
 c68:  Y_2_1 - N_icp_1 <= 0
 c69:  Y_2_2 - N_icp_2 <= 0
 c70:  Y_2_3 - N_icp_3 <= 0
 c71:  Y_2_4 - N_icp_4 <= 0
 c72:  Y_2_5 - N_icp_5 <= 0
 c73:  Y_2_6 - N_icp_6 <= 0
 c74:  Y_2_7 - N_icp_7 <= 0
 c75:  Y_3_0 - N_icp_0 <= 0
 c76:  Y_3_1 - N_icp_1 <= 0
 c77:  Y_3_2 - N_icp_2 <= 0
 c78:  Y_3_3 - N_icp_3 <= 0
 c79:  Y_3_4 - N_icp_4 <= 0
 c80:  Y_3_5 - N_icp_5 <= 0
 c81:  Y_3_6 - N_icp_6 <= 0
 c82:  Y_3_7 - N_icp_7 <= 0
 c83:  Y_4_0 - N_icp_0 <= 0
 c84:  Y_4_1 - N_icp_1 <= 0
 c85:  Y_4_2 - N_icp_2 <= 0
 c86:  Y_4_3 - N_icp_3 <= 0
 c87:  Y_4_4 - N_icp_4 <= 0
 c88:  Y_4_5 - N_icp_5 <= 0
 c89:  Y_4_6 - N_icp_6 <= 0
 c90:  Y_4_7 - N_icp_7 <= 0
 c91:  Y_5_0 - N_icp_0 <= 0
 c92:  Y_5_1 - N_icp_1 <= 0
 c93:  Y_5_2 - N_icp_2 <= 0
 c94:  Y_5_3 - N_icp_3 <= 0
 c95:  Y_5_4 - N_icp_4 <= 0
 c96:  Y_5_5 - N_icp_5 <= 0
 c97:  Y_5_6 - N_icp_6 <= 0
 c98:  Y_5_7 - N_icp_7 <= 0
 c99:  Y_6_0 - N_icp_0 <= 0
 c100: Y_6_1 - N_icp_1 <= 0
 c101: Y_6_2 - N_icp_2 <= 0
 c102: Y_6_3 - N_icp_3 <= 0
 c103: Y_6_4 - N_icp_4 <= 0
 c104: Y_6_5 - N_icp_5 <= 0
 c105: Y_6_6 - N_icp_6 <= 0
 c106: Y_6_7 - N_icp_7 <= 0
 c107: Y_7_0 - N_icp_0 <= 0
 c108: Y_7_1 - N_icp_1 <= 0
 c109: Y_7_2 - N_icp_2 <= 0
 c110: Y_7_3 - N_icp_3 <= 0
 c111: Y_7_4 - N_icp_4 <= 0
 c112: Y_7_5 - N_icp_5 <= 0
 c113: Y_7_6 - N_icp_6 <= 0
 c114: Y_7_7 - N_icp_7 <= 0
 c115: Y_8_0 - N_icp_0 <= 0
 c116: Y_8_1 - N_icp_1 <= 0
 c117: Y_8_2 - N_icp_2 <= 0
 c118: Y_8_3 - N_icp_3 <= 0
 c119: Y_8_4 - N_icp_4 <= 0
 c120: Y_8_5 - N_icp_5 <= 0
 c121: Y_8_6 - N_icp_6 <= 0
 c122: Y_8_7 - N_icp_7 <= 0
 c123: Y_9_0 - N_icp_0 <= 0
 c124: Y_9_1 - N_icp_1 <= 0
 c125: Y_9_2 - N_icp_2 <= 0
 c126: Y_9_3 - N_icp_3 <= 0
 c127: Y_9_4 - N_icp_4 <= 0
 c128: Y_9_5 - N_icp_5 <= 0
 c129: Y_9_6 - N_icp_6 <= 0
 c130: Y_9_7 - N_icp_7 <= 0
 c131: Y_10_0 - N_icp_0 <= 0
 c132: Y_10_1 - N_icp_1 <= 0
 c133: Y_10_2 - N_icp_2 <= 0
 c134: Y_10_3 - N_icp_3 <= 0
 c135: Y_10_4 - N_icp_4 <= 0
 c136: Y_10_5 - N_icp_5 <= 0
 c137: Y_10_6 - N_icp_6 <= 0
 c138: Y_10_7 - N_icp_7 <= 0
 c139: Y_11_0 - N_icp_0 <= 0
 c140: Y_11_1 - N_icp_1 <= 0
 c141: Y_11_2 - N_icp_2 <= 0
 c142: Y_11_3 - N_icp_3 <= 0
 c143: Y_11_4 - N_icp_4 <= 0
 c144: Y_11_5 - N_icp_5 <= 0
 c145: Y_11_6 - N_icp_6 <= 0
 c146: Y_11_7 - N_icp_7 <= 0
 c147: Y_12_0 - N_icp_0 <= 0
 c148: Y_12_1 - N_icp_1 <= 0
 c149: Y_12_2 - N_icp_2 <= 0
 c150: Y_12_3 - N_icp_3 <= 0
 c151: Y_12_4 - N_icp_4 <= 0
 c152: Y_12_5 - N_icp_5 <= 0
 c153: Y_12_6 - N_icp_6 <= 0
 c154: Y_12_7 - N_icp_7 <= 0
 c155: Y_13_0 - N_icp_0 <= 0
 c156: Y_13_1 - N_icp_1 <= 0
 c157: Y_13_2 - N_icp_2 <= 0
 c158: Y_13_3 - N_icp_3 <= 0
 c159: Y_13_4 - N_icp_4 <= 0
 c160: Y_13_5 - N_icp_5 <= 0
 c161: Y_13_6 - N_icp_6 <= 0
 c162: Y_13_7 - N_icp_7 <= 0
 c163: Y_14_0 - N_icp_0 <= 0
 c164: Y_14_1 - N_icp_1 <= 0
 c165: Y_14_2 - N_icp_2 <= 0
 c166: Y_14_3 - N_icp_3 <= 0
 c167: Y_14_4 - N_icp_4 <= 0
 c168: Y_14_5 - N_icp_5 <= 0
 c169: Y_14_6 - N_icp_6 <= 0
 c170: Y_14_7 - N_icp_7 <= 0
 c171: Y_15_0 - N_icp_0 <= 0
 c172: Y_15_1 - N_icp_1 <= 0
 c173: Y_15_2 - N_icp_2 <= 0
 c174: Y_15_3 - N_icp_3 <= 0
 c175: Y_15_4 - N_icp_4 <= 0
 c176: Y_15_5 - N_icp_5 <= 0
 c177: Y_15_6 - N_icp_6 <= 0
 c178: Y_15_7 - N_icp_7 <= 0
 c179: Y_16_0 - N_icp_0 <= 0
 c180: Y_16_1 - N_icp_1 <= 0
 c181: Y_16_2 - N_icp_2 <= 0
 c182: Y_16_3 - N_icp_3 <= 0
 c183: Y_16_4 - N_icp_4 <= 0
 c184: Y_16_5 - N_icp_5 <= 0
 c185: Y_16_6 - N_icp_6 <= 0
 c186: Y_16_7 - N_icp_7 <= 0
 c187: Y_17_0 - N_icp_0 <= 0
 c188: Y_17_1 - N_icp_1 <= 0
 c189: Y_17_2 - N_icp_2 <= 0
 c190: Y_17_3 - N_icp_3 <= 0
 c191: Y_17_4 - N_icp_4 <= 0
 c192: Y_17_5 - N_icp_5 <= 0
 c193: Y_17_6 - N_icp_6 <= 0
 c194: Y_17_7 - N_icp_7 <= 0
 c195: Y_18_0 - N_icp_0 <= 0
 c196: Y_18_1 - N_icp_1 <= 0
 c197: Y_18_2 - N_icp_2 <= 0
 c198: Y_18_3 - N_icp_3 <= 0
 c199: Y_18_4 - N_icp_4 <= 0
 c200: Y_18_5 - N_icp_5 <= 0
 c201: Y_18_6 - N_icp_6 <= 0
 c202: Y_18_7 - N_icp_7 <= 0
 c203: Y_19_0 - N_icp_0 <= 0
 c204: Y_19_1 - N_icp_1 <= 0
 c205: Y_19_2 - N_icp_2 <= 0
 c206: Y_19_3 - N_icp_3 <= 0
 c207: Y_19_4 - N_icp_4 <= 0
 c208: Y_19_5 - N_icp_5 <= 0
 c209: Y_19_6 - N_icp_6 <= 0
 c210: Y_19_7 - N_icp_7 <= 0
 c211: Y_20_0 - N_icp_0 <= 0
 c212: Y_20_1 - N_icp_1 <= 0
 c213: Y_20_2 - N_icp_2 <= 0
 c214: Y_20_3 - N_icp_3 <= 0
 c215: Y_20_4 - N_icp_4 <= 0
 c216: Y_20_5 - N_icp_5 <= 0
 c217: Y_20_6 - N_icp_6 <= 0
 c218: Y_20_7 - N_icp_7 <= 0
 c219: Y_21_0 - N_icp_0 <= 0
 c220: Y_21_1 - N_icp_1 <= 0
 c221: Y_21_2 - N_icp_2 <= 0
 c222: Y_21_3 - N_icp_3 <= 0
 c223: Y_21_4 - N_icp_4 <= 0
 c224: Y_21_5 - N_icp_5 <= 0
 c225: Y_21_6 - N_icp_6 <= 0
 c226: Y_21_7 - N_icp_7 <= 0
 c227: Y_22_0 - N_icp_0 <= 0
 c228: Y_22_1 - N_icp_1 <= 0
 c229: Y_22_2 - N_icp_2 <= 0
 c230: Y_22_3 - N_icp_3 <= 0
 c231: Y_22_4 - N_icp_4 <= 0
 c232: Y_22_5 - N_icp_5 <= 0
 c233: Y_22_6 - N_icp_6 <= 0
 c234: Y_22_7 - N_icp_7 <= 0
 c235: Y_23_0 - N_icp_0 <= 0
 c236: Y_23_1 - N_icp_1 <= 0
 c237: Y_23_2 - N_icp_2 <= 0
 c238: Y_23_3 - N_icp_3 <= 0
 c239: Y_23_4 - N_icp_4 <= 0
 c240: Y_23_5 - N_icp_5 <= 0
 c241: Y_23_6 - N_icp_6 <= 0
 c242: Y_23_7 - N_icp_7 <= 0
 c243: Y_24_0 - N_icp_0 <= 0
 c244: Y_24_1 - N_icp_1 <= 0
 c245: Y_24_2 - N_icp_2 <= 0
 c246: Y_24_3 - N_icp_3 <= 0
 c247: Y_24_4 - N_icp_4 <= 0
 c248: Y_24_5 - N_icp_5 <= 0
 c249: Y_24_6 - N_icp_6 <= 0
 c250: Y_24_7 - N_icp_7 <= 0
 c251: Y_25_0 - N_icp_0 <= 0
 c252: Y_25_1 - N_icp_1 <= 0
 c253: Y_25_2 - N_icp_2 <= 0
 c254: Y_25_3 - N_icp_3 <= 0
 c255: Y_25_4 - N_icp_4 <= 0
 c256: Y_25_5 - N_icp_5 <= 0
 c257: Y_25_6 - N_icp_6 <= 0
 c258: Y_25_7 - N_icp_7 <= 0
 c259: Y_26_0 - N_icp_0 <= 0
 c260: Y_26_1 - N_icp_1 <= 0
 c261: Y_26_2 - N_icp_2 <= 0
 c262: Y_26_3 - N_icp_3 <= 0
 c263: Y_26_4 - N_icp_4 <= 0
 c264: Y_26_5 - N_icp_5 <= 0
 c265: Y_26_6 - N_icp_6 <= 0
 c266: Y_26_7 - N_icp_7 <= 0
 c267: Y_27_0 - N_icp_0 <= 0
 c268: Y_27_1 - N_icp_1 <= 0
 c269: Y_27_2 - N_icp_2 <= 0
 c270: Y_27_3 - N_icp_3 <= 0
 c271: Y_27_4 - N_icp_4 <= 0
 c272: Y_27_5 - N_icp_5 <= 0
 c273: Y_27_6 - N_icp_6 <= 0
 c274: Y_27_7 - N_icp_7 <= 0
 c275: Y_28_0 - N_icp_0 <= 0
 c276: Y_28_1 - N_icp_1 <= 0
 c277: Y_28_2 - N_icp_2 <= 0
 c278: Y_28_3 - N_icp_3 <= 0
 c279: Y_28_4 - N_icp_4 <= 0
 c280: Y_28_5 - N_icp_5 <= 0
 c281: Y_28_6 - N_icp_6 <= 0
 c282: Y_28_7 - N_icp_7 <= 0
 c283: Y_29_0 - N_icp_0 <= 0
 c284: Y_29_1 - N_icp_1 <= 0
 c285: Y_29_2 - N_icp_2 <= 0
 c286: Y_29_3 - N_icp_3 <= 0
 c287: Y_29_4 - N_icp_4 <= 0
 c288: Y_29_5 - N_icp_5 <= 0
 c289: Y_29_6 - N_icp_6 <= 0
 c290: Y_29_7 - N_icp_7 <= 0
 c291: Y_30_0 - N_icp_0 <= 0
 c292: Y_30_1 - N_icp_1 <= 0
 c293: Y_30_2 - N_icp_2 <= 0
 c294: Y_30_3 - N_icp_3 <= 0
 c295: Y_30_4 - N_icp_4 <= 0
 c296: Y_30_5 - N_icp_5 <= 0
 c297: Y_30_6 - N_icp_6 <= 0
 c298: Y_30_7 - N_icp_7 <= 0
 c299: Y_31_0 - N_icp_0 <= 0
 c300: Y_31_1 - N_icp_1 <= 0
 c301: Y_31_2 - N_icp_2 <= 0
 c302: Y_31_3 - N_icp_3 <= 0
 c303: Y_31_4 - N_icp_4 <= 0
 c304: Y_31_5 - N_icp_5 <= 0
 c305: Y_31_6 - N_icp_6 <= 0
 c306: Y_31_7 - N_icp_7 <= 0
 c307: Y_32_0 - N_icp_0 <= 0
 c308: Y_32_1 - N_icp_1 <= 0
 c309: Y_32_2 - N_icp_2 <= 0
 c310: Y_32_3 - N_icp_3 <= 0
 c311: Y_32_4 - N_icp_4 <= 0
 c312: Y_32_5 - N_icp_5 <= 0
 c313: Y_32_6 - N_icp_6 <= 0
 c314: Y_32_7 - N_icp_7 <= 0
 c315: Y_33_0 - N_icp_0 <= 0
 c316: Y_33_1 - N_icp_1 <= 0
 c317: Y_33_2 - N_icp_2 <= 0
 c318: Y_33_3 - N_icp_3 <= 0
 c319: Y_33_4 - N_icp_4 <= 0
 c320: Y_33_5 - N_icp_5 <= 0
 c321: Y_33_6 - N_icp_6 <= 0
 c322: Y_33_7 - N_icp_7 <= 0
 c323: Y_34_0 - N_icp_0 <= 0
 c324: Y_34_1 - N_icp_1 <= 0
 c325: Y_34_2 - N_icp_2 <= 0
 c326: Y_34_3 - N_icp_3 <= 0
 c327: Y_34_4 - N_icp_4 <= 0
 c328: Y_34_5 - N_icp_5 <= 0
 c329: Y_34_6 - N_icp_6 <= 0
 c330: Y_34_7 - N_icp_7 <= 0
 c331: Y_35_0 - N_icp_0 <= 0
 c332: Y_35_1 - N_icp_1 <= 0
 c333: Y_35_2 - N_icp_2 <= 0
 c334: Y_35_3 - N_icp_3 <= 0
 c335: Y_35_4 - N_icp_4 <= 0
 c336: Y_35_5 - N_icp_5 <= 0
 c337: Y_35_6 - N_icp_6 <= 0
 c338: Y_35_7 - N_icp_7 <= 0
 c339: Y_36_0 - N_icp_0 <= 0
 c340: Y_36_1 - N_icp_1 <= 0
 c341: Y_36_2 - N_icp_2 <= 0
 c342: Y_36_3 - N_icp_3 <= 0
 c343: Y_36_4 - N_icp_4 <= 0
 c344: Y_36_5 - N_icp_5 <= 0
 c345: Y_36_6 - N_icp_6 <= 0
 c346: Y_36_7 - N_icp_7 <= 0
 c347: Y_37_0 - N_icp_0 <= 0
 c348: Y_37_1 - N_icp_1 <= 0
 c349: Y_37_2 - N_icp_2 <= 0
 c350: Y_37_3 - N_icp_3 <= 0
 c351: Y_37_4 - N_icp_4 <= 0
 c352: Y_37_5 - N_icp_5 <= 0
 c353: Y_37_6 - N_icp_6 <= 0
 c354: Y_37_7 - N_icp_7 <= 0
 c355: Y_38_0 - N_icp_0 <= 0
 c356: Y_38_1 - N_icp_1 <= 0
 c357: Y_38_2 - N_icp_2 <= 0
 c358: Y_38_3 - N_icp_3 <= 0
 c359: Y_38_4 - N_icp_4 <= 0
 c360: Y_38_5 - N_icp_5 <= 0
 c361: Y_38_6 - N_icp_6 <= 0
 c362: Y_38_7 - N_icp_7 <= 0
 c363: Y_39_0 - N_icp_0 <= 0
 c364: Y_39_1 - N_icp_1 <= 0
 c365: Y_39_2 - N_icp_2 <= 0
 c366: Y_39_3 - N_icp_3 <= 0
 c367: Y_39_4 - N_icp_4 <= 0
 c368: Y_39_5 - N_icp_5 <= 0
 c369: Y_39_6 - N_icp_6 <= 0
 c370: Y_39_7 - N_icp_7 <= 0
 c371: Y_40_0 - N_icp_0 <= 0
 c372: Y_40_1 - N_icp_1 <= 0
 c373: Y_40_2 - N_icp_2 <= 0
 c374: Y_40_3 - N_icp_3 <= 0
 c375: Y_40_4 - N_icp_4 <= 0
 c376: Y_40_5 - N_icp_5 <= 0
 c377: Y_40_6 - N_icp_6 <= 0
 c378: Y_40_7 - N_icp_7 <= 0
 c379: Y_41_0 - N_icp_0 <= 0
 c380: Y_41_1 - N_icp_1 <= 0
 c381: Y_41_2 - N_icp_2 <= 0
 c382: Y_41_3 - N_icp_3 <= 0
 c383: Y_41_4 - N_icp_4 <= 0
 c384: Y_41_5 - N_icp_5 <= 0
 c385: Y_41_6 - N_icp_6 <= 0
 c386: Y_41_7 - N_icp_7 <= 0
 c387: Y_42_0 - N_icp_0 <= 0
 c388: Y_42_1 - N_icp_1 <= 0
 c389: Y_42_2 - N_icp_2 <= 0
 c390: Y_42_3 - N_icp_3 <= 0
 c391: Y_42_4 - N_icp_4 <= 0
 c392: Y_42_5 - N_icp_5 <= 0
 c393: Y_42_6 - N_icp_6 <= 0
 c394: Y_42_7 - N_icp_7 <= 0
 c395: Y_43_0 - N_icp_0 <= 0
 c396: Y_43_1 - N_icp_1 <= 0
 c397: Y_43_2 - N_icp_2 <= 0
 c398: Y_43_3 - N_icp_3 <= 0
 c399: Y_43_4 - N_icp_4 <= 0
 c400: Y_43_5 - N_icp_5 <= 0
 c401: Y_43_6 - N_icp_6 <= 0
 c402: Y_43_7 - N_icp_7 <= 0
 c403: Y_44_0 - N_icp_0 <= 0
 c404: Y_44_1 - N_icp_1 <= 0
 c405: Y_44_2 - N_icp_2 <= 0
 c406: Y_44_3 - N_icp_3 <= 0
 c407: Y_44_4 - N_icp_4 <= 0
 c408: Y_44_5 - N_icp_5 <= 0
 c409: Y_44_6 - N_icp_6 <= 0
 c410: Y_44_7 - N_icp_7 <= 0
 c411: Y_45_0 - N_icp_0 <= 0
 c412: Y_45_1 - N_icp_1 <= 0
 c413: Y_45_2 - N_icp_2 <= 0
 c414: Y_45_3 - N_icp_3 <= 0
 c415: Y_45_4 - N_icp_4 <= 0
 c416: Y_45_5 - N_icp_5 <= 0
 c417: Y_45_6 - N_icp_6 <= 0
 c418: Y_45_7 - N_icp_7 <= 0
 c419: Y_46_0 - N_icp_0 <= 0
 c420: Y_46_1 - N_icp_1 <= 0
 c421: Y_46_2 - N_icp_2 <= 0
 c422: Y_46_3 - N_icp_3 <= 0
 c423: Y_46_4 - N_icp_4 <= 0
 c424: Y_46_5 - N_icp_5 <= 0
 c425: Y_46_6 - N_icp_6 <= 0
 c426: Y_46_7 - N_icp_7 <= 0
 c427: Y_47_0 - N_icp_0 <= 0
 c428: Y_47_1 - N_icp_1 <= 0
 c429: Y_47_2 - N_icp_2 <= 0
 c430: Y_47_3 - N_icp_3 <= 0
 c431: Y_47_4 - N_icp_4 <= 0
 c432: Y_47_5 - N_icp_5 <= 0
 c433: Y_47_6 - N_icp_6 <= 0
 c434: Y_47_7 - N_icp_7 <= 0
 c435: Y_48_0 - N_icp_0 <= 0
 c436: Y_48_1 - N_icp_1 <= 0
 c437: Y_48_2 - N_icp_2 <= 0
 c438: Y_48_3 - N_icp_3 <= 0
 c439: Y_48_4 - N_icp_4 <= 0
 c440: Y_48_5 - N_icp_5 <= 0
 c441: Y_48_6 - N_icp_6 <= 0
 c442: Y_48_7 - N_icp_7 <= 0
 c443: Y_49_0 - N_icp_0 <= 0
 c444: Y_49_1 - N_icp_1 <= 0
 c445: Y_49_2 - N_icp_2 <= 0
 c446: Y_49_3 - N_icp_3 <= 0
 c447: Y_49_4 - N_icp_4 <= 0
 c448: Y_49_5 - N_icp_5 <= 0
 c449: Y_49_6 - N_icp_6 <= 0
 c450: Y_49_7 - N_icp_7 <= 0
Bounds
 0 <= Y_0_0 <= 1
 0 <= Y_0_1 <= 1
 0 <= Y_0_2 <= 1
 0 <= Y_0_3 <= 1
 0 <= Y_0_4 <= 1
 0 <= Y_0_5 <= 1
 0 <= Y_0_6 <= 1
 0 <= Y_0_7 <= 1
 0 <= Y_1_0 <= 1
 0 <= Y_1_1 <= 1
 0 <= Y_1_2 <= 1
 0 <= Y_1_3 <= 1
 0 <= Y_1_4 <= 1
 0 <= Y_1_5 <= 1
 0 <= Y_1_6 <= 1
 0 <= Y_1_7 <= 1
 0 <= Y_2_0 <= 1
 0 <= Y_2_1 <= 1
 0 <= Y_2_2 <= 1
 0 <= Y_2_3 <= 1
 0 <= Y_2_4 <= 1
 0 <= Y_2_5 <= 1
 0 <= Y_2_6 <= 1
 0 <= Y_2_7 <= 1
 0 <= Y_3_0 <= 1
 0 <= Y_3_1 <= 1
 0 <= Y_3_2 <= 1
 0 <= Y_3_3 <= 1
 0 <= Y_3_4 <= 1
 0 <= Y_3_5 <= 1
 0 <= Y_3_6 <= 1
 0 <= Y_3_7 <= 1
 0 <= Y_4_0 <= 1
 0 <= Y_4_1 <= 1
 0 <= Y_4_2 <= 1
 0 <= Y_4_3 <= 1
 0 <= Y_4_4 <= 1
 0 <= Y_4_5 <= 1
 0 <= Y_4_6 <= 1
 0 <= Y_4_7 <= 1
 0 <= Y_5_0 <= 1
 0 <= Y_5_1 <= 1
 0 <= Y_5_2 <= 1
 0 <= Y_5_3 <= 1
 0 <= Y_5_4 <= 1
 0 <= Y_5_5 <= 1
 0 <= Y_5_6 <= 1
 0 <= Y_5_7 <= 1
 0 <= Y_6_0 <= 1
 0 <= Y_6_1 <= 1
 0 <= Y_6_2 <= 1
 0 <= Y_6_3 <= 1
 0 <= Y_6_4 <= 1
 0 <= Y_6_5 <= 1
 0 <= Y_6_6 <= 1
 0 <= Y_6_7 <= 1
 0 <= Y_7_0 <= 1
 0 <= Y_7_1 <= 1
 0 <= Y_7_2 <= 1
 0 <= Y_7_3 <= 1
 0 <= Y_7_4 <= 1
 0 <= Y_7_5 <= 1
 0 <= Y_7_6 <= 1
 0 <= Y_7_7 <= 1
 0 <= Y_8_0 <= 1
 0 <= Y_8_1 <= 1
 0 <= Y_8_2 <= 1
 0 <= Y_8_3 <= 1
 0 <= Y_8_4 <= 1
 0 <= Y_8_5 <= 1
 0 <= Y_8_6 <= 1
 0 <= Y_8_7 <= 1
 0 <= Y_9_0 <= 1
 0 <= Y_9_1 <= 1
 0 <= Y_9_2 <= 1
 0 <= Y_9_3 <= 1
 0 <= Y_9_4 <= 1
 0 <= Y_9_5 <= 1
 0 <= Y_9_6 <= 1
 0 <= Y_9_7 <= 1
 0 <= Y_10_0 <= 1
 0 <= Y_10_1 <= 1
 0 <= Y_10_2 <= 1
 0 <= Y_10_3 <= 1
 0 <= Y_10_4 <= 1
 0 <= Y_10_5 <= 1
 0 <= Y_10_6 <= 1
 0 <= Y_10_7 <= 1
 0 <= Y_11_0 <= 1
 0 <= Y_11_1 <= 1
 0 <= Y_11_2 <= 1
 0 <= Y_11_3 <= 1
 0 <= Y_11_4 <= 1
 0 <= Y_11_5 <= 1
 0 <= Y_11_6 <= 1
 0 <= Y_11_7 <= 1
 0 <= Y_12_0 <= 1
 0 <= Y_12_1 <= 1
 0 <= Y_12_2 <= 1
 0 <= Y_12_3 <= 1
 0 <= Y_12_4 <= 1
 0 <= Y_12_5 <= 1
 0 <= Y_12_6 <= 1
 0 <= Y_12_7 <= 1
 0 <= Y_13_0 <= 1
 0 <= Y_13_1 <= 1
 0 <= Y_13_2 <= 1
 0 <= Y_13_3 <= 1
 0 <= Y_13_4 <= 1
 0 <= Y_13_5 <= 1
 0 <= Y_13_6 <= 1
 0 <= Y_13_7 <= 1
 0 <= Y_14_0 <= 1
 0 <= Y_14_1 <= 1
 0 <= Y_14_2 <= 1
 0 <= Y_14_3 <= 1
 0 <= Y_14_4 <= 1
 0 <= Y_14_5 <= 1
 0 <= Y_14_6 <= 1
 0 <= Y_14_7 <= 1
 0 <= Y_15_0 <= 1
 0 <= Y_15_1 <= 1
 0 <= Y_15_2 <= 1
 0 <= Y_15_3 <= 1
 0 <= Y_15_4 <= 1
 0 <= Y_15_5 <= 1
 0 <= Y_15_6 <= 1
 0 <= Y_15_7 <= 1
 0 <= Y_16_0 <= 1
 0 <= Y_16_1 <= 1
 0 <= Y_16_2 <= 1
 0 <= Y_16_3 <= 1
 0 <= Y_16_4 <= 1
 0 <= Y_16_5 <= 1
 0 <= Y_16_6 <= 1
 0 <= Y_16_7 <= 1
 0 <= Y_17_0 <= 1
 0 <= Y_17_1 <= 1
 0 <= Y_17_2 <= 1
 0 <= Y_17_3 <= 1
 0 <= Y_17_4 <= 1
 0 <= Y_17_5 <= 1
 0 <= Y_17_6 <= 1
 0 <= Y_17_7 <= 1
 0 <= Y_18_0 <= 1
 0 <= Y_18_1 <= 1
 0 <= Y_18_2 <= 1
 0 <= Y_18_3 <= 1
 0 <= Y_18_4 <= 1
 0 <= Y_18_5 <= 1
 0 <= Y_18_6 <= 1
 0 <= Y_18_7 <= 1
 0 <= Y_19_0 <= 1
 0 <= Y_19_1 <= 1
 0 <= Y_19_2 <= 1
 0 <= Y_19_3 <= 1
 0 <= Y_19_4 <= 1
 0 <= Y_19_5 <= 1
 0 <= Y_19_6 <= 1
 0 <= Y_19_7 <= 1
 0 <= Y_20_0 <= 1
 0 <= Y_20_1 <= 1
 0 <= Y_20_2 <= 1
 0 <= Y_20_3 <= 1
 0 <= Y_20_4 <= 1
 0 <= Y_20_5 <= 1
 0 <= Y_20_6 <= 1
 0 <= Y_20_7 <= 1
 0 <= Y_21_0 <= 1
 0 <= Y_21_1 <= 1
 0 <= Y_21_2 <= 1
 0 <= Y_21_3 <= 1
 0 <= Y_21_4 <= 1
 0 <= Y_21_5 <= 1
 0 <= Y_21_6 <= 1
 0 <= Y_21_7 <= 1
 0 <= Y_22_0 <= 1
 0 <= Y_22_1 <= 1
 0 <= Y_22_2 <= 1
 0 <= Y_22_3 <= 1
 0 <= Y_22_4 <= 1
 0 <= Y_22_5 <= 1
 0 <= Y_22_6 <= 1
 0 <= Y_22_7 <= 1
 0 <= Y_23_0 <= 1
 0 <= Y_23_1 <= 1
 0 <= Y_23_2 <= 1
 0 <= Y_23_3 <= 1
 0 <= Y_23_4 <= 1
 0 <= Y_23_5 <= 1
 0 <= Y_23_6 <= 1
 0 <= Y_23_7 <= 1
 0 <= Y_24_0 <= 1
 0 <= Y_24_1 <= 1
 0 <= Y_24_2 <= 1
 0 <= Y_24_3 <= 1
 0 <= Y_24_4 <= 1
 0 <= Y_24_5 <= 1
 0 <= Y_24_6 <= 1
 0 <= Y_24_7 <= 1
 0 <= Y_25_0 <= 1
 0 <= Y_25_1 <= 1
 0 <= Y_25_2 <= 1
 0 <= Y_25_3 <= 1
 0 <= Y_25_4 <= 1
 0 <= Y_25_5 <= 1
 0 <= Y_25_6 <= 1
 0 <= Y_25_7 <= 1
 0 <= Y_26_0 <= 1
 0 <= Y_26_1 <= 1
 0 <= Y_26_2 <= 1
 0 <= Y_26_3 <= 1
 0 <= Y_26_4 <= 1
 0 <= Y_26_5 <= 1
 0 <= Y_26_6 <= 1
 0 <= Y_26_7 <= 1
 0 <= Y_27_0 <= 1
 0 <= Y_27_1 <= 1
 0 <= Y_27_2 <= 1
 0 <= Y_27_3 <= 1
 0 <= Y_27_4 <= 1
 0 <= Y_27_5 <= 1
 0 <= Y_27_6 <= 1
 0 <= Y_27_7 <= 1
 0 <= Y_28_0 <= 1
 0 <= Y_28_1 <= 1
 0 <= Y_28_2 <= 1
 0 <= Y_28_3 <= 1
 0 <= Y_28_4 <= 1
 0 <= Y_28_5 <= 1
 0 <= Y_28_6 <= 1
 0 <= Y_28_7 <= 1
 0 <= Y_29_0 <= 1
 0 <= Y_29_1 <= 1
 0 <= Y_29_2 <= 1
 0 <= Y_29_3 <= 1
 0 <= Y_29_4 <= 1
 0 <= Y_29_5 <= 1
 0 <= Y_29_6 <= 1
 0 <= Y_29_7 <= 1
 0 <= Y_30_0 <= 1
 0 <= Y_30_1 <= 1
 0 <= Y_30_2 <= 1
 0 <= Y_30_3 <= 1
 0 <= Y_30_4 <= 1
 0 <= Y_30_5 <= 1
 0 <= Y_30_6 <= 1
 0 <= Y_30_7 <= 1
 0 <= Y_31_0 <= 1
 0 <= Y_31_1 <= 1
 0 <= Y_31_2 <= 1
 0 <= Y_31_3 <= 1
 0 <= Y_31_4 <= 1
 0 <= Y_31_5 <= 1
 0 <= Y_31_6 <= 1
 0 <= Y_31_7 <= 1
 0 <= Y_32_0 <= 1
 0 <= Y_32_1 <= 1
 0 <= Y_32_2 <= 1
 0 <= Y_32_3 <= 1
 0 <= Y_32_4 <= 1
 0 <= Y_32_5 <= 1
 0 <= Y_32_6 <= 1
 0 <= Y_32_7 <= 1
 0 <= Y_33_0 <= 1
 0 <= Y_33_1 <= 1
 0 <= Y_33_2 <= 1
 0 <= Y_33_3 <= 1
 0 <= Y_33_4 <= 1
 0 <= Y_33_5 <= 1
 0 <= Y_33_6 <= 1
 0 <= Y_33_7 <= 1
 0 <= Y_34_0 <= 1
 0 <= Y_34_1 <= 1
 0 <= Y_34_2 <= 1
 0 <= Y_34_3 <= 1
 0 <= Y_34_4 <= 1
 0 <= Y_34_5 <= 1
 0 <= Y_34_6 <= 1
 0 <= Y_34_7 <= 1
 0 <= Y_35_0 <= 1
 0 <= Y_35_1 <= 1
 0 <= Y_35_2 <= 1
 0 <= Y_35_3 <= 1
 0 <= Y_35_4 <= 1
 0 <= Y_35_5 <= 1
 0 <= Y_35_6 <= 1
 0 <= Y_35_7 <= 1
 0 <= Y_36_0 <= 1
 0 <= Y_36_1 <= 1
 0 <= Y_36_2 <= 1
 0 <= Y_36_3 <= 1
 0 <= Y_36_4 <= 1
 0 <= Y_36_5 <= 1
 0 <= Y_36_6 <= 1
 0 <= Y_36_7 <= 1
 0 <= Y_37_0 <= 1
 0 <= Y_37_1 <= 1
 0 <= Y_37_2 <= 1
 0 <= Y_37_3 <= 1
 0 <= Y_37_4 <= 1
 0 <= Y_37_5 <= 1
 0 <= Y_37_6 <= 1
 0 <= Y_37_7 <= 1
 0 <= Y_38_0 <= 1
 0 <= Y_38_1 <= 1
 0 <= Y_38_2 <= 1
 0 <= Y_38_3 <= 1
 0 <= Y_38_4 <= 1
 0 <= Y_38_5 <= 1
 0 <= Y_38_6 <= 1
 0 <= Y_38_7 <= 1
 0 <= Y_39_0 <= 1
 0 <= Y_39_1 <= 1
 0 <= Y_39_2 <= 1
 0 <= Y_39_3 <= 1
 0 <= Y_39_4 <= 1
 0 <= Y_39_5 <= 1
 0 <= Y_39_6 <= 1
 0 <= Y_39_7 <= 1
 0 <= Y_40_0 <= 1
 0 <= Y_40_1 <= 1
 0 <= Y_40_2 <= 1
 0 <= Y_40_3 <= 1
 0 <= Y_40_4 <= 1
 0 <= Y_40_5 <= 1
 0 <= Y_40_6 <= 1
 0 <= Y_40_7 <= 1
 0 <= Y_41_0 <= 1
 0 <= Y_41_1 <= 1
 0 <= Y_41_2 <= 1
 0 <= Y_41_3 <= 1
 0 <= Y_41_4 <= 1
 0 <= Y_41_5 <= 1
 0 <= Y_41_6 <= 1
 0 <= Y_41_7 <= 1
 0 <= Y_42_0 <= 1
 0 <= Y_42_1 <= 1
 0 <= Y_42_2 <= 1
 0 <= Y_42_3 <= 1
 0 <= Y_42_4 <= 1
 0 <= Y_42_5 <= 1
 0 <= Y_42_6 <= 1
 0 <= Y_42_7 <= 1
 0 <= Y_43_0 <= 1
 0 <= Y_43_1 <= 1
 0 <= Y_43_2 <= 1
 0 <= Y_43_3 <= 1
 0 <= Y_43_4 <= 1
 0 <= Y_43_5 <= 1
 0 <= Y_43_6 <= 1
 0 <= Y_43_7 <= 1
 0 <= Y_44_0 <= 1
 0 <= Y_44_1 <= 1
 0 <= Y_44_2 <= 1
 0 <= Y_44_3 <= 1
 0 <= Y_44_4 <= 1
 0 <= Y_44_5 <= 1
 0 <= Y_44_6 <= 1
 0 <= Y_44_7 <= 1
 0 <= Y_45_0 <= 1
 0 <= Y_45_1 <= 1
 0 <= Y_45_2 <= 1
 0 <= Y_45_3 <= 1
 0 <= Y_45_4 <= 1
 0 <= Y_45_5 <= 1
 0 <= Y_45_6 <= 1
 0 <= Y_45_7 <= 1
 0 <= Y_46_0 <= 1
 0 <= Y_46_1 <= 1
 0 <= Y_46_2 <= 1
 0 <= Y_46_3 <= 1
 0 <= Y_46_4 <= 1
 0 <= Y_46_5 <= 1
 0 <= Y_46_6 <= 1
 0 <= Y_46_7 <= 1
 0 <= Y_47_0 <= 1
 0 <= Y_47_1 <= 1
 0 <= Y_47_2 <= 1
 0 <= Y_47_3 <= 1
 0 <= Y_47_4 <= 1
 0 <= Y_47_5 <= 1
 0 <= Y_47_6 <= 1
 0 <= Y_47_7 <= 1
 0 <= Y_48_0 <= 1
 0 <= Y_48_1 <= 1
 0 <= Y_48_2 <= 1
 0 <= Y_48_3 <= 1
 0 <= Y_48_4 <= 1
 0 <= Y_48_5 <= 1
 0 <= Y_48_6 <= 1
 0 <= Y_48_7 <= 1
 0 <= Y_49_0 <= 1
 0 <= Y_49_1 <= 1
 0 <= Y_49_2 <= 1
 0 <= Y_49_3 <= 1
 0 <= Y_49_4 <= 1
 0 <= Y_49_5 <= 1
 0 <= Y_49_6 <= 1
 0 <= Y_49_7 <= 1
 0 <= N_icp_0 <= 1
 0 <= N_icp_1 <= 1
 0 <= N_icp_2 <= 1
 0 <= N_icp_3 <= 1
 0 <= N_icp_4 <= 1
 0 <= N_icp_5 <= 1
 0 <= N_icp_6 <= 1
 0 <= N_icp_7 <= 1
Generals
 Y_0_0  Y_0_1  Y_0_2  Y_0_3  Y_0_4  Y_0_5  Y_0_6  Y_0_7  Y_1_0  Y_1_1  Y_1_2 
 Y_1_3  Y_1_4  Y_1_5  Y_1_6  Y_1_7  Y_2_0  Y_2_1  Y_2_2  Y_2_3  Y_2_4  Y_2_5 
 Y_2_6  Y_2_7  Y_3_0  Y_3_1  Y_3_2  Y_3_3  Y_3_4  Y_3_5  Y_3_6  Y_3_7  Y_4_0 
 Y_4_1  Y_4_2  Y_4_3  Y_4_4  Y_4_5  Y_4_6  Y_4_7  Y_5_0  Y_5_1  Y_5_2  Y_5_3 
 Y_5_4  Y_5_5  Y_5_6  Y_5_7  Y_6_0  Y_6_1  Y_6_2  Y_6_3  Y_6_4  Y_6_5  Y_6_6 
 Y_6_7  Y_7_0  Y_7_1  Y_7_2  Y_7_3  Y_7_4  Y_7_5  Y_7_6  Y_7_7  Y_8_0  Y_8_1 
 Y_8_2  Y_8_3  Y_8_4  Y_8_5  Y_8_6  Y_8_7  Y_9_0  Y_9_1  Y_9_2  Y_9_3  Y_9_4 
 Y_9_5  Y_9_6  Y_9_7  Y_10_0  Y_10_1  Y_10_2  Y_10_3  Y_10_4  Y_10_5  Y_10_6 
 Y_10_7  Y_11_0  Y_11_1  Y_11_2  Y_11_3  Y_11_4  Y_11_5  Y_11_6  Y_11_7 
 Y_12_0  Y_12_1  Y_12_2  Y_12_3  Y_12_4  Y_12_5  Y_12_6  Y_12_7  Y_13_0 
 Y_13_1  Y_13_2  Y_13_3  Y_13_4  Y_13_5  Y_13_6  Y_13_7  Y_14_0  Y_14_1 
 Y_14_2  Y_14_3  Y_14_4  Y_14_5  Y_14_6  Y_14_7  Y_15_0  Y_15_1  Y_15_2 
 Y_15_3  Y_15_4  Y_15_5  Y_15_6  Y_15_7  Y_16_0  Y_16_1  Y_16_2  Y_16_3 
 Y_16_4  Y_16_5  Y_16_6  Y_16_7  Y_17_0  Y_17_1  Y_17_2  Y_17_3  Y_17_4 
 Y_17_5  Y_17_6  Y_17_7  Y_18_0  Y_18_1  Y_18_2  Y_18_3  Y_18_4  Y_18_5 
 Y_18_6  Y_18_7  Y_19_0  Y_19_1  Y_19_2  Y_19_3  Y_19_4  Y_19_5  Y_19_6 
 Y_19_7  Y_20_0  Y_20_1  Y_20_2  Y_20_3  Y_20_4  Y_20_5  Y_20_6  Y_20_7 
 Y_21_0  Y_21_1  Y_21_2  Y_21_3  Y_21_4  Y_21_5  Y_21_6  Y_21_7  Y_22_0 
 Y_22_1  Y_22_2  Y_22_3  Y_22_4  Y_22_5  Y_22_6  Y_22_7  Y_23_0  Y_23_1 
 Y_23_2  Y_23_3  Y_23_4  Y_23_5  Y_23_6  Y_23_7  Y_24_0  Y_24_1  Y_24_2 
 Y_24_3  Y_24_4  Y_24_5  Y_24_6  Y_24_7  Y_25_0  Y_25_1  Y_25_2  Y_25_3 
 Y_25_4  Y_25_5  Y_25_6  Y_25_7  Y_26_0  Y_26_1  Y_26_2  Y_26_3  Y_26_4 
 Y_26_5  Y_26_6  Y_26_7  Y_27_0  Y_27_1  Y_27_2  Y_27_3  Y_27_4  Y_27_5 
 Y_27_6  Y_27_7  Y_28_0  Y_28_1  Y_28_2  Y_28_3  Y_28_4  Y_28_5  Y_28_6 
 Y_28_7  Y_29_0  Y_29_1  Y_29_2  Y_29_3  Y_29_4  Y_29_5  Y_29_6  Y_29_7 
 Y_30_0  Y_30_1  Y_30_2  Y_30_3  Y_30_4  Y_30_5  Y_30_6  Y_30_7  Y_31_0 
 Y_31_1  Y_31_2  Y_31_3  Y_31_4  Y_31_5  Y_31_6  Y_31_7  Y_32_0  Y_32_1 
 Y_32_2  Y_32_3  Y_32_4  Y_32_5  Y_32_6  Y_32_7  Y_33_0  Y_33_1  Y_33_2 
 Y_33_3  Y_33_4  Y_33_5  Y_33_6  Y_33_7  Y_34_0  Y_34_1  Y_34_2  Y_34_3 
 Y_34_4  Y_34_5  Y_34_6  Y_34_7  Y_35_0  Y_35_1  Y_35_2  Y_35_3  Y_35_4 
 Y_35_5  Y_35_6  Y_35_7  Y_36_0  Y_36_1  Y_36_2  Y_36_3  Y_36_4  Y_36_5 
 Y_36_6  Y_36_7  Y_37_0  Y_37_1  Y_37_2  Y_37_3  Y_37_4  Y_37_5  Y_37_6 
 Y_37_7  Y_38_0  Y_38_1  Y_38_2  Y_38_3  Y_38_4  Y_38_5  Y_38_6  Y_38_7 
 Y_39_0  Y_39_1  Y_39_2  Y_39_3  Y_39_4  Y_39_5  Y_39_6  Y_39_7  Y_40_0 
 Y_40_1  Y_40_2  Y_40_3  Y_40_4  Y_40_5  Y_40_6  Y_40_7  Y_41_0  Y_41_1 
 Y_41_2  Y_41_3  Y_41_4  Y_41_5  Y_41_6  Y_41_7  Y_42_0  Y_42_1  Y_42_2 
 Y_42_3  Y_42_4  Y_42_5  Y_42_6  Y_42_7  Y_43_0  Y_43_1  Y_43_2  Y_43_3 
 Y_43_4  Y_43_5  Y_43_6  Y_43_7  Y_44_0  Y_44_1  Y_44_2  Y_44_3  Y_44_4 
 Y_44_5  Y_44_6  Y_44_7  Y_45_0  Y_45_1  Y_45_2  Y_45_3  Y_45_4  Y_45_5 
 Y_45_6  Y_45_7  Y_46_0  Y_46_1  Y_46_2  Y_46_3  Y_46_4  Y_46_5  Y_46_6 
 Y_46_7  Y_47_0  Y_47_1  Y_47_2  Y_47_3  Y_47_4  Y_47_5  Y_47_6  Y_47_7 
 Y_48_0  Y_48_1  Y_48_2  Y_48_3  Y_48_4  Y_48_5  Y_48_6  Y_48_7  Y_49_0 
 Y_49_1  Y_49_2  Y_49_3  Y_49_4  Y_49_5  Y_49_6  Y_49_7  N_icp_0  N_icp_1 
 N_icp_2  N_icp_3  N_icp_4  N_icp_5  N_icp_6  N_icp_7 
End
